NAME: instance_424
TYPE: TSP
DIMENSION: 20
EDGE_WEIGHT_TYPE: EUC_2D
NODE_COORD_SECTION
0 66.24 2.14
1 79.36 26.10
2 23.74 5.79
3 87.59 84.34
4 5.85 22.36
5 90.63 61.20
6 1.92 80.83
7 59.46 49.77
8 15.19 69.91
9 7.15 65.64
10 97.18 5.77
11 78.75 79.06
12 21.72 6.24
13 85.32 61.73
14 53.97 40.95
15 86.62 72.67
16 61.31 4.93
17 71.17 88.52
18 28.55 67.48
19 32.41 3.36
EOF
